(declare-const a Int)
(assert (forall ((a Int) (b Int)) (and (=> (= b 0) (= a 0)) (=> (= b 1) (= a 1)))))   ;Transfer-Const-of-Anchovy__remA
(assert (not (forall ((a Int) (b Int)) (=> (or (= b 0) (= b 1)) (or (= a 0) (= a 1))))))
(check-sat)